experiments/sat_smt/run/sat-r/results/jessica_amelia.res
solved=true
solvingTime=154.79736328125
nActions=16