experiments/sat_smt/run/sat-r/results/jessica_amelia.out
Timesteps: 1
s UNSATISFIABLE
real 0.17
user 0.02
sys 0.00
Timesteps: 2
s UNSATISFIABLE
real 0.15
user 0.04
sys 0.00
Timesteps: 3
s UNSATISFIABLE
real 0.30
user 0.11
sys 0.00
Timesteps: 4
s UNSATISFIABLE
real 0.51
user 0.39
sys 0.00
Timesteps: 5
s UNSATISFIABLE
real 1.19
user 1.05
sys 0.01
Timesteps: 6
s UNSATISFIABLE
real 1.52
user 1.33
sys 0.01
Timesteps: 7
s UNSATISFIABLE
real 3.98
user 3.76
sys 0.01
Timesteps: 8
s UNSATISFIABLE
real 2.83
user 2.58
sys 0.02
Timesteps: 9
s UNSATISFIABLE
real 5.11
user 4.82
sys 0.02
Timesteps: 10
s UNSATISFIABLE
real 8.40
user 8.04
sys 0.03
Timesteps: 11
s UNSATISFIABLE
real 17.51
user 16.66
sys 0.06
Timesteps: 12
s UNSATISFIABLE
real 22.96
user 22.02
sys 0.05
Timesteps: 13
s UNSATISFIABLE
real 19.32
user 18.35
sys 0.07
Timesteps: 14
s UNSATISFIABLE
real 16.62
user 15.61
sys 0.07
Timesteps: 15
s UNSATISFIABLE
real 34.71
user 34.12
sys 0.09
Timesteps: 16
s SATISFIABLE
real 21.75
user 21.20
sys 0.07
